DIMACS_lns/graph-1000-366.col
p edge 1000 1829
e 1 198
e 1 64
e 1 445
e 1 104
e 1 913
e 1 473
e 1 367
e 1 837
e 3 777
e 3 929
e 3 801
e 4 92
e 4 392
e 4 173
e 4 265
e 5 321
e 5 907
e 5 150
e 5 37
e 5 518
e 5 891
e 5 257
e 5 671
e 6 465
e 6 367
e 6 796
e 7 243
e 7 538
e 7 926
e 7 186
e 8 307
e 8 243
e 8 763
e 8 177
e 8 14
e 10 420
e 10 691
e 10 117
e 11 492
e 11 893
e 11 601
e 11 894
e 11 963
e 12 524
e 12 872
e 12 64
e 12 322
e 12 896
e 12 679
e 13 351
e 13 750
e 13 941
e 13 69
e 13 425
e 14 803
e 14 800
e 14 858
e 14 20
e 15 580
e 15 191
e 15 255
e 16 802
e 16 215
e 16 961
e 16 599
e 16 490
e 16 406
e 16 168
e 18 252
e 18 421
e 18 641
e 18 934
e 19 562
e 19 913
e 19 81
e 19 657
e 19 605
e 19 925
e 20 312
e 20 188
e 20 26
e 20 289
e 21 530
e 21 522
e 21 599
e 21 182
e 24 222
e 24 50
e 24 55
e 24 482
e 25 152
e 25 40
e 25 335
e 25 974
e 26 143
e 26 668
e 26 708
e 26 689
e 26 306
e 27 280
e 27 478
e 27 744
e 29 704
e 29 991
e 29 463
e 29 905
e 30 511
e 30 983
e 30 695
e 30 965
e 30 496
e 30 478
e 31 104
e 31 242
e 31 430
e 32 469
e 32 242
e 32 945
e 34 328
e 34 710
e 34 408
e 34 724
e 35 768
e 35 968
e 35 874
e 35 843
e 35 821
e 35 178
e 36 878
e 36 733
e 36 308
e 37 517
e 37 984
e 37 309
e 37 398
e 38 272
e 38 297
e 38 256
e 38 456
e 38 469
e 39 92
e 39 846
e 39 90
e 39 449
e 39 915
e 39 450
e 40 418
e 40 757
e 40 80
e 41 255
e 41 940
e 41 883
e 41 359
e 42 227
e 42 962
e 42 465
e 42 496
e 42 774
e 42 89
e 43 712
e 43 445
e 43 89
e 44 615
e 44 89
e 44 719
e 44 401
e 44 596
e 44 127
e 44 791
e 44 873
e 45 700
e 45 582
e 45 764
e 45 171
e 45 825
e 45 567
e 47 248
e 47 676
e 47 428
e 47 983
e 48 369
e 48 919
e 48 351
e 48 184
e 49 838
e 49 470
e 49 767
e 49 602
e 49 681
e 50 974
e 50 482
e 50 187
e 50 740
e 50 538
e 50 788
e 52 333
e 52 905
e 52 387
e 52 221
e 52 891
e 52 274
e 55 837
e 55 719
e 55 63
e 55 187
e 55 496
e 55 807
e 55 656
e 57 683
e 57 279
e 57 539
e 57 64
e 59 418
e 59 350
e 59 689
e 59 754
e 59 683
e 59 75
e 61 906
e 61 928
e 61 718
e 61 234
e 62 212
e 62 418
e 62 535
e 63 704
e 63 853
e 63 89
e 63 381
e 63 913
e 63 384
e 64 517
e 64 518
e 64 318
e 64 374
e 65 234
e 65 751
e 65 218
e 65 84
e 65 660
e 65 968
e 67 629
e 67 585
e 67 579
e 67 439
e 67 624
e 67 218
e 68 728
e 68 719
e 68 95
e 68 466
e 68 368
e 68 871
e 68 643
e 69 789
e 69 115
e 69 990
e 71 156
e 71 94
e 71 433
e 71 209
e 71 320
e 71 248
e 71 756
e 71 640
e 73 226
e 73 725
e 73 943
e 75 955
e 75 695
e 75 369
e 75 706
e 76 243
e 76 344
e 76 849
e 77 518
e 77 134
e 77 92
e 77 901
e 79 683
e 79 432
e 79 474
e 79 866
e 80 498
e 80 424
e 80 621
e 81 309
e 81 243
e 81 98
e 82 468
e 82 857
e 82 134
e 82 195
e 82 295
e 82 724
e 82 960
e 83 838
e 83 452
e 83 489
e 83 244
e 83 710
e 84 593
e 84 273
e 85 518
e 85 957
e 85 236
e 85 102
e 86 928
e 86 569
e 86 141
e 86 115
e 86 177
e 86 377
e 88 220
e 88 731
e 88 763
e 88 109
e 89 452
e 89 344
e 89 888
e 89 161
e 90 433
e 90 582
e 90 773
e 90 425
e 90 347
e 90 781
e 91 104
e 91 863
e 91 399
e 91 357
e 92 770
e 92 370
e 92 550
e 93 312
e 93 655
e 93 847
e 93 191
e 93 486
e 93 842
e 93 879
e 93 856
e 93 774
e 94 383
e 94 759
e 94 518
e 94 426
e 95 878
e 95 277
e 95 930
e 95 996
e 96 794
e 96 648
e 96 281
e 97 622
e 97 584
e 97 899
e 97 917
e 97 630
e 97 625
e 98 558
e 98 253
e 98 311
e 98 277
e 100 295
e 100 899
e 100 135
e 102 162
e 102 226
e 102 465
e 104 690
e 104 985
e 104 767
e 105 236
e 105 466
e 105 689
e 105 121
e 105 913
e 105 436
e 106 456
e 106 157
e 106 759
e 106 878
e 108 223
e 108 878
e 108 293
e 109 149
e 109 359
e 109 306
e 109 610
e 109 826
e 111 768
e 111 173
e 111 136
e 111 818
e 111 248
e 111 603
e 111 935
e 113 586
e 113 404
e 113 500
e 114 941
e 114 419
e 114 834
e 115 930
e 115 935
e 115 299
e 115 630
e 115 612
e 116 978
e 116 894
e 116 127
e 117 318
e 117 246
e 121 267
e 121 500
e 121 584
e 121 457
e 121 741
e 123 331
e 123 636
e 123 186
e 123 477
e 126 723
e 126 946
e 126 796
e 126 863
e 126 578
e 126 472
e 127 149
e 127 798
e 127 250
e 127 594
e 127 776
e 128 232
e 128 171
e 128 540
e 129 498
e 129 885
e 129 877
e 129 408
e 129 962
e 130 964
e 130 961
e 130 394
e 130 683
e 131 954
e 131 791
e 131 230
e 131 540
e 131 754
e 131 619
e 132 820
e 132 204
e 132 306
e 132 206
e 132 274
e 132 243
e 132 884
e 132 530
e 134 985
e 134 250
e 135 289
e 135 781
e 135 309
e 135 319
e 135 653
e 136 293
e 136 676
e 136 630
e 136 219
e 138 688
e 138 581
e 138 645
e 138 565
e 138 902
e 138 457
e 138 590
e 138 787
e 141 632
e 141 314
e 141 191
e 141 973
e 141 342
e 141 615
e 142 590
e 142 144
e 142 458
e 142 935
e 142 987
e 142 990
e 143 801
e 143 733
e 143 828
e 143 377
e 143 242
e 143 985
e 143 732
e 144 757
e 144 172
e 144 206
e 144 992
e 144 533
e 147 489
e 147 986
e 147 361
e 147 484
e 147 712
e 148 254
e 148 911
e 148 812
e 149 810
e 149 765
e 149 242
e 149 754
e 149 794
e 149 430
e 150 623
e 150 972
e 152 441
e 152 333
e 153 233
e 153 257
e 153 622
e 155 952
e 155 497
e 155 762
e 156 312
e 156 444
e 156 424
e 156 278
e 156 322
e 157 241
e 157 768
e 157 794
e 157 311
e 157 497
e 157 648
e 158 749
e 158 698
e 158 640
e 158 596
e 159 214
e 159 162
e 159 654
e 159 444
e 160 740
e 160 844
e 160 525
e 160 211
e 160 300
e 160 521
e 160 270
e 160 308
e 161 212
e 161 401
e 162 193
e 164 296
e 164 563
e 164 918
e 164 670
e 167 648
e 167 953
e 167 386
e 167 787
e 168 652
e 168 723
e 168 716
e 168 397
e 170 178
e 170 286
e 170 282
e 170 764
e 170 489
e 170 202
e 171 177
e 171 951
e 171 715
e 172 803
e 172 232
e 172 964
e 172 870
e 173 863
e 173 753
e 176 767
e 176 736
e 176 835
e 176 615
e 176 270
e 177 255
e 178 767
e 179 692
e 179 898
e 179 912
e 179 909
e 180 545
e 180 200
e 180 199
e 180 252
e 181 940
e 181 777
e 181 784
e 181 623
e 181 661
e 182 731
e 182 494
e 182 303
e 182 989
e 184 740
e 184 655
e 184 468
e 184 277
e 184 565
e 184 582
e 184 889
e 185 634
e 185 846
e 185 898
e 185 582
e 186 884
e 187 250
e 187 769
e 187 232
e 188 873
e 188 945
e 188 281
e 190 396
e 190 291
e 190 363
e 191 782
e 191 733
e 191 202
e 192 344
e 192 491
e 192 633
e 193 998
e 193 915
e 193 494
e 193 239
e 193 993
e 194 632
e 194 279
e 194 362
e 195 971
e 195 736
e 195 316
e 196 384
e 196 394
e 196 685
e 197 794
e 197 803
e 197 509
e 197 526
e 197 317
e 198 521
e 198 828
e 198 489
e 198 612
e 199 598
e 199 629
e 199 776
e 199 783
e 199 722
e 199 741
e 199 633
e 200 569
e 200 518
e 200 202
e 201 853
e 201 780
e 201 831
e 201 314
e 201 613
e 202 482
e 202 907
e 202 753
e 203 883
e 203 599
e 203 791
e 204 759
e 204 923
e 205 525
e 205 214
e 205 282
e 205 431
e 205 749
e 205 430
e 206 710
e 206 963
e 206 813
e 206 653
e 207 754
e 207 909
e 207 625
e 207 425
e 208 835
e 208 662
e 208 641
e 209 826
e 209 426
e 209 372
e 210 226
e 210 829
e 210 674
e 210 957
e 211 781
e 211 443
e 211 574
e 211 805
e 212 507
e 212 304
e 214 324
e 214 851
e 214 260
e 214 863
e 215 767
e 215 737
e 215 812
e 218 230
e 218 514
e 218 284
e 218 328
e 218 450
e 218 298
e 219 386
e 219 436
e 219 908
e 220 669
e 220 582
e 220 247
e 220 290
e 221 630
e 221 715
e 222 978
e 222 601
e 222 387
e 222 578
e 222 767
e 223 925
e 223 588
e 223 443
e 225 420
e 225 527
e 225 399
e 225 489
e 225 263
e 226 869
e 226 525
e 226 732
e 227 929
e 227 722
e 227 583
e 230 267
e 230 994
e 230 372
e 230 679
e 230 528
e 230 986
e 230 492
e 232 763
e 232 387
e 232 677
e 233 249
e 233 807
e 234 961
e 235 359
e 235 828
e 235 813
e 236 897
e 236 817
e 237 441
e 237 368
e 237 518
e 237 938
e 238 991
e 238 279
e 238 812
e 238 414
e 238 406
e 239 295
e 239 271
e 239 796
e 240 764
e 240 379
e 240 364
e 241 691
e 241 690
e 241 320
e 242 908
e 242 717
e 242 882
e 242 769
e 242 548
e 243 434
e 244 788
e 244 445
e 244 642
e 246 499
e 246 697
e 246 420
e 246 486
e 247 456
e 247 685
e 247 789
e 248 650
e 248 624
e 248 710
e 248 874
e 249 773
e 249 585
e 249 362
e 250 530
e 250 585
e 250 993
e 250 308
e 250 888
e 250 545
e 251 671
e 251 781
e 251 615
e 251 319
e 251 469
e 252 906
e 253 938
e 253 858
e 254 383
e 254 931
e 254 912
e 254 463
e 254 439
e 254 870
e 255 767
e 255 715
e 255 863
e 255 632
e 256 372
e 256 814
e 257 984
e 257 414
e 257 775
e 258 807
e 258 364
e 258 473
e 259 327
e 259 430
e 259 757
e 259 368
e 259 918
e 260 506
e 260 441
e 261 483
e 261 834
e 261 593
e 261 706
e 261 817
e 263 899
e 263 847
e 263 449
e 263 278
e 263 914
e 263 892
e 263 359
e 263 281
e 265 804
e 265 692
e 267 988
e 267 470
e 267 828
e 267 744
e 267 544
e 268 439
e 268 667
e 268 586
e 268 500
e 268 347
e 270 730
e 270 712
e 270 437
e 270 457
e 271 889
e 271 906
e 271 884
e 271 1000
e 272 989
e 272 694
e 272 797
e 272 908
e 272 707
e 273 618
e 273 405
e 273 963
e 274 885
e 274 568
e 275 871
e 275 844
e 275 846
e 275 941
e 275 788
e 277 807
e 278 522
e 278 757
e 278 579
e 278 384
e 279 428
e 279 862
e 279 929
e 280 473
e 280 548
e 280 898
e 280 452
e 281 951
e 281 435
e 281 725
e 282 987
e 282 424
e 283 436
e 283 545
e 283 685
e 283 929
e 284 971
e 284 922
e 284 512
e 284 372
e 286 522
e 286 400
e 286 399
e 288 656
e 288 881
e 288 928
e 289 779
e 289 396
e 289 487
e 289 588
e 290 694
e 290 627
e 291 299
e 291 873
e 291 345
e 293 828
e 293 311
e 293 907
e 295 399
e 296 770
e 296 475
e 297 683
e 297 308
e 297 884
e 297 898
e 298 804
e 298 457
e 299 512
e 299 922
e 300 891
e 300 496
e 303 415
e 303 833
e 304 398
e 304 807
e 306 522
e 306 945
e 306 984
e 307 512
e 307 314
e 308 614
e 308 758
e 309 820
e 309 574
e 309 935
e 309 422
e 310 801
e 310 687
e 310 471
e 310 463
e 311 765
e 311 755
e 311 651
e 312 466
e 312 624
e 312 869
e 314 772
e 316 445
e 316 591
e 316 823
e 316 634
e 317 889
e 317 827
e 318 540
e 318 869
e 318 816
e 319 406
e 320 952
e 320 876
e 321 902
e 321 845
e 322 402
e 322 405
e 322 694
e 324 998
e 324 502
e 324 526
e 324 657
e 327 345
e 327 707
e 327 876
e 327 554
e 328 507
e 328 342
e 328 831
e 328 392
e 330 842
e 330 928
e 330 879
e 330 478
e 331 338
e 331 777
e 331 569
e 333 893
e 333 603
e 334 399
e 334 465
e 334 937
e 334 927
e 335 994
e 335 857
e 335 534
e 335 571
e 335 927
e 338 765
e 338 721
e 338 595
e 342 866
e 342 601
e 345 672
e 345 875
e 345 613
e 345 669
e 345 790
e 347 368
e 347 484
e 347 994
e 348 749
e 348 764
e 348 866
e 350 929
e 350 798
e 350 896
e 351 809
e 351 556
e 353 882
e 353 392
e 353 436
e 353 869
e 354 908
e 354 400
e 354 788
e 357 824
e 357 945
e 357 371
e 357 930
e 357 733
e 358 635
e 358 976
e 358 972
e 358 455
e 359 832
e 359 383
e 361 457
e 361 731
e 362 597
e 362 814
e 362 941
e 362 502
e 363 711
e 363 401
e 363 661
e 363 375
e 363 827
e 363 483
e 364 416
e 364 824
e 364 943
e 367 808
e 367 420
e 367 475
e 367 806
e 367 415
e 367 881
e 367 535
e 368 904
e 369 818
e 369 924
e 370 630
e 370 538
e 370 578
e 370 978
e 370 809
e 371 653
e 371 857
e 372 791
e 372 621
e 374 567
e 374 943
e 374 633
e 374 992
e 374 851
e 375 500
e 375 404
e 375 818
e 377 563
e 377 870
e 377 591
e 378 380
e 378 829
e 378 754
e 378 840
e 379 889
e 379 521
e 379 863
e 380 816
e 380 914
e 380 965
e 380 770
e 381 817
e 381 411
e 381 745
e 383 420
e 383 384
e 384 596
e 386 650
e 386 535
e 387 510
e 389 842
e 389 978
e 389 432
e 389 791
e 390 955
e 390 841
e 390 723
e 390 643
e 394 587
e 396 470
e 396 438
e 396 733
e 396 643
e 397 562
e 397 882
e 397 582
e 398 488
e 398 591
e 398 510
e 398 915
e 398 998
e 398 640
e 399 693
e 399 425
e 400 458
e 400 988
e 401 562
e 401 722
e 401 917
e 401 441
e 401 872
e 402 984
e 402 445
e 402 465
e 404 949
e 404 856
e 404 537
e 405 886
e 405 716
e 406 965
e 406 913
e 406 844
e 406 591
e 408 937
e 408 512
e 408 912
e 408 641
e 408 488
e 408 640
e 408 945
e 411 434
e 411 528
e 411 917
e 411 724
e 412 935
e 412 494
e 412 694
e 413 786
e 413 924
e 413 955
e 413 721
e 414 604
e 415 583
e 415 778
e 415 913
e 415 934
e 416 452
e 416 790
e 418 720
e 418 713
e 418 904
e 419 634
e 419 844
e 419 704
e 419 790
e 419 499
e 419 651
e 420 509
e 421 892
e 421 807
e 421 875
e 422 955
e 422 812
e 422 994
e 422 596
e 422 835
e 424 571
e 424 576
e 424 630
e 425 654
e 425 808
e 426 715
e 426 428
e 426 758
e 427 732
e 427 756
e 427 826
e 427 919
e 427 974
e 428 667
e 430 593
e 430 627
e 431 568
e 431 444
e 431 744
e 432 709
e 432 625
e 432 680
e 433 881
e 434 471
e 435 871
e 435 757
e 435 820
e 435 818
e 436 816
e 436 717
e 437 660
e 437 528
e 437 595
e 437 728
e 438 694
e 438 926
e 439 775
e 440 676
e 440 457
e 440 960
e 441 683
e 441 688
e 441 804
e 441 912
e 441 884
e 441 656
e 441 716
e 443 570
e 443 652
e 443 626
e 443 458
e 444 740
e 444 838
e 445 751
e 445 575
e 445 847
e 449 776
e 450 882
e 451 737
e 451 967
e 451 837
e 451 823
e 452 784
e 452 602
e 453 938
e 453 829
e 453 844
e 455 902
e 455 709
e 456 990
e 456 519
e 457 886
e 457 755
e 457 740
e 458 854
e 458 690
e 458 605
e 459 736
e 459 783
e 459 918
e 465 688
e 465 904
e 466 612
e 466 614
e 466 869
e 466 905
e 466 996
e 466 957
e 468 511
e 468 509
e 468 483
e 469 571
e 469 728
e 469 619
e 469 489
e 470 489
e 471 474
e 471 602
e 472 697
e 472 781
e 472 991
e 472 634
e 472 668
e 473 822
e 473 901
e 474 490
e 474 970
e 475 629
e 475 670
e 477 916
e 477 605
e 484 949
e 486 537
e 487 755
e 487 927
e 487 727
e 488 694
e 488 496
e 488 556
e 489 797
e 489 553
e 489 499
e 489 589
e 490 603
e 490 870
e 490 919
e 491 1000
e 491 670
e 491 594
e 492 597
e 492 540
e 492 894
e 492 545
e 494 824
e 494 883
e 494 687
e 494 884
e 494 690
e 496 524
e 496 655
e 497 990
e 497 755
e 498 618
e 498 895
e 498 772
e 499 843
e 499 709
e 500 879
e 500 589
e 500 967
e 502 565
e 506 759
e 506 929
e 506 892
e 506 532
e 507 780
e 507 618
e 507 655
e 509 733
e 509 552
e 510 728
e 511 542
e 511 599
e 511 798
e 511 598
e 512 754
e 514 845
e 514 601
e 517 585
e 517 858
e 518 994
e 519 704
e 519 728
e 521 773
e 524 879
e 524 885
e 525 584
e 525 907
e 526 782
e 526 619
e 526 968
e 526 550
e 527 782
e 527 698
e 527 968
e 528 745
e 532 727
e 532 602
e 532 744
e 533 548
e 533 620
e 533 920
e 533 538
e 534 841
e 534 723
e 534 626
e 535 857
e 535 608
e 535 539
e 537 745
e 537 914
e 539 992
e 539 816
e 540 883
e 540 854
e 540 994
e 542 732
e 542 988
e 542 787
e 542 879
e 544 737
e 544 720
e 546 964
e 546 636
e 546 584
e 546 845
e 547 678
e 547 809
e 547 930
e 548 844
e 548 574
e 548 961
e 548 823
e 550 629
e 552 907
e 552 791
e 553 973
e 553 855
e 553 758
e 553 909
e 554 642
e 554 659
e 556 812
e 556 768
e 556 708
e 558 884
e 558 871
e 558 621
e 562 941
e 562 790
e 563 919
e 563 700
e 564 571
e 564 749
e 564 925
e 564 750
e 565 662
e 565 698
e 565 800
e 567 744
e 567 967
e 567 833
e 567 985
e 567 740
e 567 949
e 568 572
e 569 847
e 569 740
e 570 832
e 570 951
e 570 762
e 570 906
e 571 922
e 571 990
e 572 922
e 572 717
e 572 840
e 572 656
e 574 991
e 575 651
e 575 934
e 575 693
e 576 772
e 576 589
e 577 857
e 577 846
e 577 1000
e 578 764
e 578 623
e 579 730
e 580 608
e 580 828
e 581 731
e 581 852
e 581 594
e 582 820
e 582 712
e 582 776
e 583 983
e 583 805
e 583 593
e 585 908
e 585 651
e 585 782
e 586 602
e 587 994
e 587 916
e 588 866
e 588 780
e 588 890
e 590 846
e 591 984
e 591 648
e 593 797
e 593 949
e 594 605
e 594 833
e 594 884
e 594 886
e 595 938
e 597 954
e 598 614
e 598 765
e 599 656
e 602 683
e 603 891
e 604 668
e 604 642
e 605 985
e 608 635
e 610 660
e 610 838
e 612 753
e 613 873
e 613 765
e 613 925
e 613 808
e 614 624
e 615 924
e 616 777
e 616 772
e 616 626
e 618 986
e 618 676
e 619 883
e 620 894
e 620 695
e 620 974
e 621 965
e 621 923
e 622 738
e 623 669
e 623 727
e 623 708
e 624 728
e 625 852
e 625 751
e 625 914
e 626 654
e 627 669
e 629 828
e 629 951
e 629 784
e 629 741
e 630 916
e 632 660
e 633 899
e 633 989
e 634 931
e 634 791
e 635 881
e 635 964
e 635 976
e 636 751
e 640 776
e 642 838
e 642 817
e 643 713
e 643 706
e 643 681
e 645 972
e 645 896
e 648 875
e 650 909
e 651 855
e 651 788
e 652 893
e 652 718
e 654 813
e 655 877
e 656 680
e 656 689
e 657 953
e 659 940
e 659 987
e 660 924
e 660 993
e 661 840
e 662 825
e 662 788
e 662 690
e 662 697
e 662 888
e 667 837
e 668 913
e 668 915
e 668 678
e 669 741
e 670 687
e 670 877
e 671 840
e 671 688
e 672 810
e 672 888
e 672 897
e 674 831
e 674 715
e 677 751
e 677 708
e 677 825
e 678 988
e 678 883
e 678 730
e 679 780
e 680 689
e 680 816
e 680 808
e 681 801
e 683 892
e 683 831
e 685 758
e 685 749
e 687 855
e 687 902
e 689 775
e 689 763
e 689 841
e 690 996
e 691 753
e 692 920
e 693 786
e 693 725
e 695 847
e 695 758
e 697 895
e 697 851
e 697 965
e 697 827
e 698 911
e 698 704
e 700 914
e 700 744
e 700 857
e 704 872
e 704 866
e 704 849
e 707 791
e 707 870
e 708 813
e 709 782
e 710 769
e 710 906
e 711 831
e 711 833
e 712 756
e 712 923
e 713 896
e 713 750
e 713 725
e 713 731
e 718 954
e 718 852
e 718 986
e 718 902
e 718 916
e 719 940
e 719 926
e 720 952
e 720 906
e 721 989
e 723 918
e 725 849
e 725 1000
e 727 729
e 729 998
e 729 983
e 731 827
e 731 838
e 733 828
e 736 814
e 737 809
e 737 923
e 737 952
e 737 896
e 738 741
e 738 813
e 741 778
e 744 895
e 745 925
e 749 769
e 749 818
e 749 827
e 750 857
e 750 809
e 751 873
e 753 779
e 753 810
e 755 804
e 756 802
e 756 989
e 756 994
e 757 810
e 762 993
e 763 962
e 764 803
e 765 873
e 765 874
e 767 789
e 767 993
e 767 901
e 770 896
e 770 915
e 772 844
e 774 838
e 774 901
e 774 855
e 775 896
e 775 800
e 775 826
e 776 840
e 777 990
e 778 798
e 778 804
e 779 856
e 781 943
e 781 946
e 781 925
e 782 919
e 783 881
e 783 890
e 786 805
e 786 842
e 786 822
e 787 930
e 788 862
e 790 871
e 794 826
e 796 938
e 796 846
e 796 962
e 797 857
e 800 809
e 801 872
e 801 809
e 802 968
e 803 998
e 803 937
e 806 961
e 806 901
e 810 855
e 810 838
e 812 875
e 813 817
e 821 949
e 821 973
e 822 902
e 822 941
e 824 881
e 825 875
e 832 886
e 832 857
e 833 897
e 833 892
e 833 908
e 834 871
e 834 996
e 838 890
e 838 896
e 841 858
e 842 890
e 843 854
e 846 926
e 847 856
e 847 890
e 853 889
e 853 925
e 853 881
e 856 928
e 858 911
e 862 888
e 863 983
e 874 946
e 875 912
e 876 954
e 876 946
e 877 963
e 883 976
e 889 905
e 891 946
e 892 906
e 898 987
e 902 905
e 904 924
e 907 928
e 912 962
e 913 962
e 919 926
e 920 931
e 923 986
e 924 957
e 928 996
e 929 994
e 929 983
e 935 970
e 941 989
e 946 952
e 953 961
e 955 978
e 960 963
e 961 987
e 968 971
e 970 974
